c p0=0.08
p cnf 10 43
-2 -6 -5 0
-8 -2 1 0
3 -9 -8 0
8 7 9 0
-8 7 -6 0
1 -5 -8 0
-5 -8 -4 0
-10 -8 -9 0
-4 -3 -9 0
-1 -9 8 0
-7 5 -10 0
-2 6 -8 0
6 8 -5 0
8 4 -9 0
-7 -2 -1 0
4 -9 -7 0
-1 -6 -3 0
-4 9 -10 0
-1 7 10 0
-3 4 -6 0
1 8 9 0
-3 5 10 0
-4 2 1 0
9 -7 -4 0
10 -1 -3 0
-2 -1 -10 0
2 10 1 0
9 2 -7 0
-9 3 -2 0
5 -4 -7 0
-4 3 2 0
5 6 4 0
-6 10 9 0
8 10 9 0
-3 -1 -2 0
7 -10 1 0
1 10 5 0
-2 7 6 0
7 3 1 0
-4 -6 5 0
-6 9 -5 0
-6 3 9 0
-5 1 -8 0
